Route #1: 39 14 41 37 27 31
Route #2: 11 6 8 12 32 42 40
Route #3: 1 9 49 30 25 20 44 21
Route #4: 33 48 19 3 35 34 38
Route #5: 18 29 2 16 36 5
Route #6: 23 50 15 47 45 22 24 46
Route #7: 10 17 13 4 28 7 26 43
cost 1199.884765625